100
    1    85    85
    2    94    94
    3    26    26
    4     6     6
    5    48    48
    6    16    16
    7    21    21
    8    92    92
    9    22    22
   10    49    49
   11    95    95
   12    37    37
   13    43    43
   14    57    57
   15    45    45
   16    15    15
   17    55    55
   18    46    46
   19    52    52
   20    22    22
   21     9     9
   22    91    91
   23     1     1
   24    59    59
   25    22    22
   26    67    67
   27    94    94
   28    98    98
   29    38    38
   30     7     7
   31    74    74
   32    44    44
   33    15    15
   34    34    34
   35    82    82
   36    66    66
   37    67    67
   38    94    94
   39    84    84
   40    93    93
   41    99    99
   42    33    33
   43    33    33
   44    31    31
   45    82    82
   46    28    28
   47    72    72
   48   100   100
   49    74    74
   50    17    17
   51    38    38
   52    74    74
   53    56    56
   54    20    20
   55    45    45
   56    19    19
   57    95    95
   58    94    94
   59    29    29
   60    96    96
   61    99    99
   62    97    97
   63    77    77
   64    16    16
   65    97    97
   66     8     8
   67    19    19
   68    39    39
   69    42    42
   70     7     7
   71     7     7
   72    69    69
   73    22    22
   74    37    37
   75    70    70
   76    31    31
   77    98    98
   78    26    26
   79   100   100
   80    87    87
   81    45    45
   82    72    72
   83    67    67
   84    13    13
   85    72    72
   86    81    81
   87    95    95
   88    43    43
   89    13    13
   90    58    58
   91    48    48
   92     3     3
   93    87    87
   94    64    64
   95    23    23
   96    36    36
   97    29    29
   98    24    24
   99    74    74
  100    89    89
880
